13,1,11,1,12,2,14,1,8,1,15,2,18,2,6,1,9,2,1,1,19,1,5,2,10,2,2,3,20,4,4,3,16,4,17,4,3,5,7,5;15,1,11,2,3,1,13,3,12,4,10,1,20,1,16,1,8,3,6,3,19,2,17,1,14,4,5,3,1,3,7,3,18,5,2,5,9,5,4,5;12,1,2,1,4,1,13,2,11,3,5,1,3,3,8,2,14,3,20,2,18,3,16,2,1,2,15,5,10,4,19,3,17,3,9,4,6,5,7,4;18,1,2,2,12,3,7,2,14,2,13,4,3,4,15,4,11,5,9,3,6,4,8,5,10,5,19,4,5,4,1,4,16,5,20,5,4,4,17,5;9,1,7,1,4,2,3,2,12,5,11,4,15,3,13,5,6,2,20,3,8,4,16,3,18,4,10,3,17,2,2,4,14,5,5,5,1,5,19,5;
